# less tricky
<number of tasks>
12

<cycle time>
1000

<order strength>
0,153


<task times>
1 245
2 119
3 51
4 231
5 53
6 182
7 132
8 93
9 123
10 252
11 178
12 120

<precedence relations>
3,11
4,7
4,10
4,12
5,8
5,9
7,11
11,12

<end>
